swarm_exploration/utils/lkh_mtsp_solver/resource/amtsp2_4.atsp
NAME : amtsp
TYPE : ATSP
DIMENSION : 4
EDGE_WEIGHT_TYPE : EXPLICIT
EDGE_WEIGHT_FORMAT : FULL_MATRIX
EDGE_WEIGHT_SECTION
100000 -100000 100000 100000 
100000 100000 470 2052 
0 0 100000 500 
0 0 500 100000 
