swarm_exploration/utils/lkh_mtsp_solver/resource/amtsp2_4.tour
NAME : amtsp.-99030.tour
COMMENT : Length = -99030
COMMENT : Found by LKH [Keld Helsgaun] Tue May  2 11:55:03 2023
TYPE : TOUR
DIMENSION : 4
TOUR_SECTION
1
2
3
4
-1
EOF
